NAME : Euclidean Random Tour : n = 100, sample = 4 
COMMENT : Coordinates are generated uniformly sampled from [0, 100000] x [0, 100000] 
DIMENSION : 100 
EDGE_WEIGHT_TYPE : EUC_2D 
TOUR_SECTION 
1
47
55
40
90
57
7
50
45
74
21
84
10
82
70
78
39
11
85
61
29
62
4
95
12
9
22
68
73
26
48
3
24
75
8
30
41
80
66
18
92
56
97
71
14
98
28
5
87
2
20
89
37
54
58
49
13
46
83
35
99
33
34
38
32
43
15
23
31
16
60
6
69
86
91
25
42
51
77
63
52
27
59
17
93
64
100
53
94
36
44
76
81
96
19
72
88
67
65
79
-1
